DATASET = "thpack4";
INSTANCE = "003";

WIDTH = 233;
HEIGHT = 220;
LENGTH = 587;

NO_OF_SHAPES = 10;
size = [|
  97,81,27 |
  102,78,39 |
  113,46,36 |
  66,50,42 |
  101,30,26 |
  100,56,35 |
  91,50,40 |
  106,61,56 |
  103,63,58 |
  75,57,41 |
|];

verticality = [|
  0,0,1 |
  0,0,1 |
  0,1,1 |
  1,1,1 |
  0,1,1 |
  0,1,1 |
  0,1,1 |
  1,1,1 |
  1,1,1 |
  1,1,1 |
|];

box_count = [
  8,
  16,
  12,
  12,
  18,
  13,
  14,
  17,
  12,
  13,
];
